sat
(:binary-propagations  2739
 :decisions            3458
 :del-clause           497
 :final-checks         4
 :max-generation       1
 :max-memory           31.93
 :memory               23.54
 :mk-bool-var          4390
 :mk-clause            898
 :mk-clause-binary     3390
 :num-allocs           186375781
 :num-checks           1
 :propagations         2946
 :quant-instantiations 500
 :restarts             3
 :rlimit-count         1487056
 :time                 0.28)
